Version identifier: 12.10.0.0 | 2019-11-26 | 843d4de
CPXPARAM_MIP_Interval                            10
CPXPARAM_MIP_Tolerances_AbsMIPGap                0.98999999999999999
Tried aggregator 2 times.
MIP Presolve eliminated 655 rows and 421 columns.
MIP Presolve modified 15 coefficients.
Aggregator did 25 substitutions.
Reduced MIP has 93 rows, 82 columns, and 303 nonzeros.
Reduced MIP has 36 binaries, 46 generals, 0 SOSs, and 0 indicators.
Presolve time = 0.01 sec. (0.81 ticks)
Found incumbent of value 4.000000 after 0.03 sec. (1.33 ticks)
Probing fixed 0 vars, tightened 7 bounds.
Probing changed sense of 4 constraints.
Probing time = 0.00 sec. (0.02 ticks)
Tried aggregator 1 time.
Detecting symmetries...
MIP Presolve eliminated 7 rows and 6 columns.
MIP Presolve modified 9 coefficients.
Reduced MIP has 86 rows, 76 columns, and 278 nonzeros.
Reduced MIP has 32 binaries, 44 generals, 0 SOSs, and 0 indicators.
Presolve time = 0.00 sec. (0.19 ticks)
Probing time = 0.00 sec. (0.02 ticks)
Clique table members: 12.
MIP emphasis: balance optimality and feasibility.
MIP search method: dynamic search.
Parallel mode: deterministic, using up to 4 threads.
Root relaxation solution time = 0.00 sec. (0.42 ticks)

        Nodes                                         Cuts/
   Node  Left     Objective  IInf  Best Integer    Best Bound    ItCnt     Gap

*     0+    0                            4.0000       16.0000           300.00%
*     0+    0                            6.0000       16.0000           166.67%
      0     0       10.0000    26        6.0000       10.0000       79   66.67%
      0     0       10.0000    26        6.0000      Cuts: 28      120   66.67%
      0     0       10.0000    26        6.0000      Cuts: 27      159   66.67%
*     0+    0                            9.0000       10.0000            11.11%
      0     0        cutoff              9.0000        9.0000      159    0.00%
Elapsed time = 0.04 sec. (7.52 ticks, tree = 0.01 MB, solutions = 3)
the number of Nodes = 0
